
  32    1
  10

   0   0   5 2 3 4 6 8 
   7   3   3 12 9 5 
   9   9   4 13 12 10 9 
   9   9   4 13 12 11 10 
   2  10   2 11 7 
   1   7   2 12 7 
   9  10   3 17 13 10 
   4   7   3 18 13 11 
   6   7   4 18 17 16 14 
   3  10   2 18 14 
   3   7   2 17 14 
   5   7   3 18 17 15 
   7   5   2 16 15 
   2   6   2 23 15 
   2   8   3 22 20 19 
  10   9   3 23 22 19 
   5  10   2 22 19 
  10   6   1 19 
   5  10   3 26 24 21 
   7   7   3 30 29 24 
   9  10   5 31 30 29 28 27 
   4  10   4 31 30 28 25 
   3   8   3 29 28 25 
   3   7   2 28 25 
   9  10   1 27 
   9  10   1 27 
   8   7   1 32
   7  10   1 32
   9   5   1 32
   8   6   1 32
   9  10   1 32
   0   0   0 
